50 69 82 86 91 95 13 26 
5 85 2 96 6 3 70 31 
92 98 42 61 18 68 24 
72 75 39 79 66 34 
65 30 9 20 32 
63 7 99 84 97 48 
94 59 14 38 57 54 80 77 
1 33 29 76 12 21 74 93 
52 23 73 41 17 58 
83 45 47 19 49 10 37 
27 62 88 90 60 100 
28 51 81 56 4 25 
36 11 43 89 
15 44 87 55 
16 8 
67 35 
64 46 
71 
40 22 
78 
53 

